2018/CrossCTF_2018/Finals/Crypto/BabyRSA3/outNerfed.txt
c = 5499541793182458916572235549176816842668241174266452504513113060755436878677967801073969318886578771261808846567771826513941339489235903308596884669082743082338194484742630141310604711117885643229642732544775605225440292634865971099525895746978617397424574658645139588374017720075991171820873126258830306451326541384750806605195470098194462985494
d = 15664449102383123741256492823637853135125214807384742239549570131336662433268993001893338579081447660916548171028888182200587902832321164315176336792229529488626556438838274357507327295590873540152237706572328731885382033467068457038670389341764040515475556103158917133155868200492242619473451848383350924192696773958592530565397202086200003936447
phi(n) = 25744472610420721576721354142700666534585707423276540379553111662924462766649397845238736588395849560582824664399879219093936415146333463826035714360316647265405615591383999147878527778914526369981160444050742606139799706884875928674153255909145624833489266194817757115584913491575124670523917871310421296173148930930573096639196103714702234087492
 
